
n_res = 4;
rcap = [21, 20, 390, 343];
rtype = [1, 1, 2, 2];
n_tasks = 100;
modes =  [{1, 2, 3}, {4, 5, 6}, {7, 8, 9}, {10, 11, 12}, {13, 14, 15}, {16, 17, 18}, {19, 20, 21}, {22, 23, 24}, {25, 26, 27}, {28, 29, 30}, {31, 32, 33}, {34, 35, 36}, {37, 38, 39}, {40, 41, 42}, {43, 44, 45}, {46, 47, 48}, {49, 50, 51}, {52, 53, 54}, {55, 56, 57}, {58, 59, 60}, {61, 62, 63}, {64, 65, 66}, {67, 68, 69}, {70, 71, 72}, {73, 74, 75}, {76, 77, 78}, {79, 80, 81}, {82, 83, 84}, {85, 86, 87}, {88, 89, 90}, {91, 92, 93}, {94, 95, 96}, {97, 98, 99}, {100, 101, 102}, {103, 104, 105}, {106, 107, 108}, {109, 110, 111}, {112, 113, 114}, {115, 116, 117}, {118, 119, 120}, {121, 122, 123}, {124, 125, 126}, {127, 128, 129}, {130, 131, 132}, {133, 134, 135}, {136, 137, 138}, {139, 140, 141}, {142, 143, 144}, {145, 146, 147}, {148, 149, 150}, {151, 152, 153}, {154, 155, 156}, {157, 158, 159}, {160, 161, 162}, {163, 164, 165}, {166, 167, 168}, {169, 170, 171}, {172, 173, 174}, {175, 176, 177}, {178, 179, 180}, {181, 182, 183}, {184, 185, 186}, {187, 188, 189}, {190, 191, 192}, {193, 194, 195}, {196, 197, 198}, {199, 200, 201}, {202, 203, 204}, {205, 206, 207}, {208, 209, 210}, {211, 212, 213}, {214, 215, 216}, {217, 218, 219}, {220, 221, 222}, {223, 224, 225}, {226, 227, 228}, {229, 230, 231}, {232, 233, 234}, {235, 236, 237}, {238, 239, 240}, {241, 242, 243}, {244, 245, 246}, {247, 248, 249}, {250, 251, 252}, {253, 254, 255}, {256, 257, 258}, {259, 260, 261}, {262, 263, 264}, {265, 266, 267}, {268, 269, 270}, {271, 272, 273}, {274, 275, 276}, {277, 278, 279}, {280, 281, 282}, {283, 284, 285}, {286, 287, 288}, {289, 290, 291}, {292, 293, 294}, {295, 296, 297}, {298, 299, 300}];
succ =  [{27, 26, 24, 22, 21, 20, 19, 17, 16, 11}, {27, 26, 24, 11, 9}, {26, 24, 22, 20, 19, 15, 11}, {27, 26, 24, 19, 17, 16, 12}, {33, 29, 26, 23, 22, 19, 17, 14}, {29, 27, 26, 24, 23, 21, 19, 16}, {33, 29, 28, 26, 24, 23, 20, 17}, {27, 26, 23, 22, 19, 15}, {29, 19, 12}, {33, 28, 23, 22, 19, 18}, {33, 29, 23, 14}, {33, 28, 23, 22, 18}, {33, 28, 24, 22, 19}, {40, 28, 18}, {40, 33, 32, 30, 28}, {33, 28, 25}, {36, 18}, {31, 30, 25}, {40, 36, 25}, {36, 31, 25}, {40, 36, 25}, {40, 37, 31, 30}, {42, 40, 39, 37, 36, 35, 32}, {37, 31, 30}, {42, 39, 38, 37, 35, 32}, {42, 40, 39, 38, 35, 32}, {42, 37, 36, 35, 31}, {42, 37, 36, 31}, {42, 40, 37, 31}, {46, 44, 42, 41, 38, 35}, {45, 43, 41, 39, 34}, {47, 46, 45, 43, 41, 34}, {51, 47, 46, 37, 35}, {69, 63, 61, 57, 52, 51, 49, 48, 44}, {69, 61, 57, 48, 45, 43}, {69, 63, 61, 57, 54, 52, 50, 46}, {69, 67, 65, 63, 58, 57, 56, 53, 52, 49}, {69, 64, 61, 57, 56, 51, 50, 49}, {63, 58, 53, 49, 47, 46}, {66, 52, 51, 50, 47}, {72, 70, 69, 67, 65, 64, 63, 61, 58, 56, 53}, {72, 70, 67, 65, 64, 59, 56, 54, 53}, {72, 67, 65, 63, 53, 52}, {72, 66, 59, 56, 54, 50}, {72, 64, 56, 55, 49}, {79, 72, 70, 67, 66, 65, 60, 56, 55}, {72, 69, 61, 60, 59, 55, 54}, {72, 66, 59, 54, 53}, {70, 66, 60, 59, 54}, {74, 67, 65, 53}, {79, 74, 72, 59, 55}, {79, 78, 74, 70, 64, 62, 59}, {79, 68, 60, 55}, {88, 80, 79, 78, 74, 73, 68, 62}, {88, 80, 78, 73, 62}, {100, 88, 80, 74, 62}, {99, 87, 83, 80, 78, 77, 75, 74, 72}, {88, 87, 81, 80, 77, 76, 75, 71, 68}, {87, 81, 80, 77, 71, 68}, {99, 88, 87, 85, 83, 82, 81, 78, 75}, {100, 99, 87, 86, 83, 81, 80, 77, 76}, {87, 81, 77, 76, 75, 71}, {81, 80, 77, 76, 75, 71}, {88, 87, 80, 77, 68}, {88, 87, 86, 80, 76, 71}, {87, 78, 75, 71}, {87, 75, 68}, {100, 99, 96, 95, 91, 86, 85, 84, 83, 82}, {100, 97, 96, 95, 91, 87, 86, 85, 83, 82}, {99, 98, 97, 96, 95, 93, 91, 86, 82}, {99, 96, 95, 92, 91, 85, 83, 82}, {97, 96, 95, 92, 88, 85, 82}, {96, 92, 91, 85, 83, 82}, {96, 93, 84, 81}, {94, 93, 91, 90, 89, 86, 84}, {95, 94, 93, 91, 90, 89, 84}, {96, 95, 91, 85, 82}, {100, 98, 96, 92, 91, 90, 89}, {100, 95, 93, 92, 91, 90, 89}, {96, 95, 91, 90, 89}, {95, 94, 90, 89}, {94, 90, 89}, {98, 94, 89}, {97, 92}, {93}, {92}, {93}, {91}, {}, {}, {}, {}, {}, {}, {}, {}, {}, {}, {}, {}];
n_opt = 300;
dur = [5, 6, 10, 1, 9, 10, 3, 4, 10, 4, 8, 9, 1, 4, 5, 4, 7, 10, 4, 5, 10, 6, 9, 10, 2, 5, 8, 3, 3, 8, 6, 7, 8, 4, 7, 9, 3, 6, 9, 5, 6, 8, 7, 9, 10, 4, 5, 6, 3, 7, 8, 4, 6, 7, 1, 3, 7, 2, 3, 4, 4, 4, 8, 3, 4, 5, 1, 7, 8, 1, 8, 10, 1, 7, 8, 1, 6, 8, 5, 6, 8, 4, 6, 7, 3, 5, 7, 3, 6, 10, 2, 3, 9, 7, 8, 9, 1, 4, 8, 3, 4, 8, 2, 3, 9, 2, 6, 9, 5, 6, 10, 2, 3, 5, 5, 6, 9, 2, 4, 5, 5, 6, 10, 2, 5, 9, 3, 4, 10, 1, 7, 8, 1, 7, 9, 1, 2, 7, 4, 7, 8, 2, 3, 6, 3, 7, 10, 5, 7, 10, 1, 2, 3, 3, 8, 10, 1, 7, 8, 1, 2, 5, 5, 8, 10, 4, 7, 8, 1, 7, 10, 5, 5, 7, 5, 6, 10, 1, 2, 4, 3, 7, 9, 1, 4, 10, 2, 4, 9, 2, 4, 9, 3, 8, 9, 5, 9, 9, 1, 5, 6, 3, 6, 10, 1, 2, 6, 1, 4, 7, 3, 4, 6, 3, 5, 5, 7, 9, 10, 5, 9, 10, 1, 7, 8, 5, 6, 9, 2, 3, 7, 7, 9, 10, 4, 5, 8, 2, 5, 6, 6, 9, 10, 2, 3, 9, 1, 1, 8, 2, 2, 6, 3, 8, 9, 4, 5, 9, 1, 3, 6, 2, 3, 10, 1, 2, 3, 7, 8, 10, 3, 4, 9, 3, 5, 10, 7, 9, 10, 1, 3, 6, 1, 4, 10, 2, 5, 7, 1, 7, 8, 5, 9, 10, 8, 9, 10, 4, 6, 10];
rreq = [|3, 2, 2, 3, 2, 2, 2, 2, 2, 5, 4, 3, 4, 3, 3, 3, 3, 3, 2, 2, 2, 5, 3, 1, 3, 3, 3, 3, 1, 1, 4, 4, 4, 5, 2, 2, 3, 2, 1, 3, 2, 2, 4, 3, 3, 4, 4, 3, 3, 3, 2, 1, 1, 1, 3, 2, 2, 2, 2, 1, 2, 2, 2, 2, 2, 2, 1, 1, 1, 2, 2, 2, 2, 1, 1, 3, 2, 1, 5, 4, 4, 3, 2, 2, 5, 3, 3, 3, 3, 3, 3, 3, 2, 5, 4, 4, 2, 1, 1, 4, 4, 4, 5, 5, 5, 3, 2, 2, 2, 2, 1, 4, 4, 4, 2, 1, 1, 2, 2, 2, 4, 3, 3, 2, 2, 2, 4, 4, 4, 4, 2, 2, 4, 3, 2, 4, 3, 3, 2, 2, 2, 3, 3, 3, 4, 3, 2, 4, 3, 1, 4, 3, 2, 2, 2, 1, 3, 3, 2, 1, 1, 1, 5, 4, 4, 4, 2, 2, 3, 3, 3, 3, 3, 3, 2, 2, 2, 4, 3, 2, 2, 2, 2, 3, 2, 2, 3, 3, 2, 3, 2, 2, 3, 2, 1, 5, 4, 4, 1, 1, 1, 1, 1, 1, 3, 2, 2, 4, 2, 2, 4, 3, 3, 3, 3, 3, 3, 3, 1, 5, 4, 4, 2, 2, 2, 5, 3, 3, 2, 1, 1, 3, 3, 3, 3, 3, 1, 3, 3, 1, 5, 3, 1, 3, 2, 2, 2, 2, 1, 4, 3, 3, 5, 3, 3, 2, 1, 1, 2, 1, 1, 4, 3, 1, 4, 4, 4, 5, 4, 2, 4, 3, 2, 4, 3, 3, 2, 2, 2, 4, 4, 4, 5, 3, 3, 2, 2, 2, 5, 4, 3, 2, 2, 2, 3, 3, 3, 5, 4, 3
 |1, 1, 1, 5, 2, 1, 4, 3, 3, 5, 5, 5, 2, 1, 1, 2, 2, 2, 5, 3, 3, 4, 3, 3, 3, 3, 2, 4, 2, 1, 4, 3, 3, 4, 4, 4, 3, 1, 1, 3, 2, 2, 2, 2, 2, 1, 1, 1, 3, 2, 1, 3, 2, 2, 5, 4, 4, 4, 3, 2, 5, 3, 3, 4, 3, 3, 3, 2, 1, 1, 1, 1, 4, 3, 2, 5, 2, 1, 2, 2, 2, 4, 3, 2, 1, 1, 1, 4, 3, 2, 2, 2, 2, 3, 2, 1, 3, 2, 2, 5, 2, 1, 3, 3, 2, 5, 5, 5, 3, 2, 2, 4, 3, 2, 5, 4, 3, 4, 3, 3, 5, 3, 3, 4, 3, 2, 5, 4, 4, 4, 3, 3, 3, 2, 2, 4, 4, 2, 5, 3, 2, 3, 1, 1, 2, 1, 1, 5, 3, 2, 5, 3, 2, 3, 2, 2, 4, 2, 2, 1, 1, 1, 5, 4, 4, 4, 3, 3, 4, 4, 4, 2, 2, 2, 5, 5, 5, 4, 2, 2, 1, 1, 1, 2, 1, 1, 4, 2, 2, 4, 4, 4, 3, 3, 1, 5, 3, 2, 5, 5, 5, 1, 1, 1, 4, 3, 3, 2, 2, 1, 4, 3, 3, 1, 1, 1, 2, 2, 2, 2, 1, 1, 4, 4, 4, 5, 4, 4, 4, 3, 3, 4, 4, 4, 4, 4, 4, 2, 2, 1, 4, 2, 1, 2, 2, 2, 2, 2, 1, 5, 4, 4, 5, 4, 4, 1, 1, 1, 4, 4, 4, 2, 2, 2, 5, 4, 2, 1, 1, 1, 3, 2, 2, 3, 2, 1, 5, 3, 2, 2, 2, 1, 2, 1, 1, 1, 1, 1, 2, 2, 2, 2, 2, 1, 4, 3, 3, 2, 1, 1
 |0, 0, 0, 9, 6, 3, 0, 0, 4, 8, 8, 8, 0, 7, 6, 5, 0, 1, 4, 0, 0, 0, 0, 0, 0, 0, 1, 6, 0, 0, 6, 0, 0, 0, 0, 2, 0, 0, 5, 8, 0, 0, 9, 0, 0, 4, 3, 1, 3, 2, 2, 6, 4, 0, 0, 5, 0, 5, 5, 0, 6, 0, 2, 0, 7, 6, 0, 2, 0, 0, 6, 0, 0, 0, 9, 0, 4, 4, 0, 0, 0, 0, 4, 3, 9, 7, 6, 6, 6, 1, 0, 0, 2, 2, 2, 1, 8, 0, 0, 0, 0, 0, 0, 0, 0, 8, 0, 0, 10, 5, 0, 0, 0, 4, 10, 7, 4, 7, 0, 0, 0, 0, 7, 5, 3, 2, 10, 0, 3, 6, 0, 2, 0, 0, 0, 8, 0, 2, 0, 6, 5, 6, 3, 0, 4, 0, 0, 0, 0, 0, 0, 0, 0, 0, 5, 0, 8, 6, 4, 6, 0, 0, 0, 5, 3, 0, 7, 0, 8, 7, 6, 7, 0, 0, 5, 4, 0, 5, 0, 3, 0, 0, 0, 0, 0, 5, 0, 0, 0, 3, 0, 1, 9, 7, 3, 0, 0, 6, 0, 0, 1, 8, 4, 3, 0, 0, 0, 7, 7, 0, 0, 0, 0, 0, 0, 8, 4, 0, 0, 7, 7, 6, 7, 4, 3, 0, 8, 0, 0, 0, 5, 6, 5, 4, 0, 0, 4, 9, 0, 0, 7, 0, 0, 7, 0, 2, 5, 0, 3, 0, 7, 0, 10, 0, 0, 7, 6, 0, 8, 0, 0, 8, 8, 0, 0, 0, 0, 0, 0, 0, 0, 0, 0, 0, 6, 0, 0, 5, 5, 5, 4, 3, 7, 0, 6, 0, 0, 0, 0, 0, 0, 7, 0, 0, 1, 2, 1, 0, 4, 0
 |5, 3, 2, 0, 0, 0, 6, 5, 0, 0, 0, 0, 9, 0, 0, 0, 9, 0, 0, 7, 6, 4, 4, 2, 3, 2, 0, 0, 7, 5, 0, 3, 2, 9, 5, 0, 5, 3, 0, 0, 5, 3, 0, 4, 3, 0, 0, 0, 0, 0, 0, 0, 0, 3, 7, 0, 6, 0, 0, 3, 0, 2, 0, 9, 0, 0, 6, 0, 2, 8, 0, 7, 7, 6, 0, 9, 0, 0, 6, 4, 3, 8, 0, 0, 0, 0, 0, 0, 0, 0, 6, 5, 0, 0, 0, 0, 0, 2, 1, 6, 6, 1, 3, 2, 1, 0, 3, 2, 0, 0, 4, 6, 3, 0, 0, 0, 0, 0, 4, 3, 8, 5, 0, 0, 0, 0, 0, 8, 0, 0, 4, 0, 5, 4, 2, 0, 1, 0, 7, 0, 0, 0, 0, 1, 0, 4, 4, 8, 5, 4, 9, 3, 1, 1, 0, 1, 0, 0, 0, 0, 4, 1, 9, 0, 0, 7, 0, 5, 0, 0, 0, 0, 6, 4, 0, 0, 5, 0, 3, 0, 9, 7, 6, 4, 4, 0, 1, 1, 1, 0, 9, 0, 0, 0, 0, 3, 3, 0, 2, 1, 0, 0, 0, 0, 10, 6, 4, 0, 0, 4, 2, 2, 1, 4, 3, 0, 0, 6, 3, 0, 0, 0, 0, 0, 0, 5, 0, 4, 9, 9, 0, 0, 0, 0, 8, 7, 0, 0, 4, 4, 0, 8, 8, 0, 3, 0, 0, 3, 0, 8, 0, 7, 0, 4, 3, 0, 0, 1, 0, 2, 1, 0, 0, 5, 6, 4, 1, 7, 5, 4, 8, 6, 6, 8, 0, 4, 9, 0, 0, 0, 0, 0, 0, 4, 0, 5, 4, 3, 4, 4, 4, 0, 3, 2, 0, 0, 0, 7, 0, 5|];